column=6;
row=6;
Board=[|3,4,6,0,1,0|4,5,0,2,6,1|0,2,1,0,5,4|0,3,4,0,0,0|0,0,5,6,0,0|0,6,0,0,3,5|];
horizontal=[|0,0,0,2,1|0,2,0,1,2|0,2,0,0,0|0,0,2,1,1|0,1,1,0,0|1,0,1,2,1|];
vertical=[|1,0,0,2,0,0|1,0,0,0,2,0|2,1,1,2,2,0|2,0,0,1,1,2|2,1,0,2,0,0|];
